problem_generation/data/GISP/train/er_n=65_m=1218_p=0.60_SET2_setparam=100.00_alpha=0.50_949.lp
maximize
OBJ:100x0 + 100x1 + 100x2 + 100x3 + 100x4 + 100x5 + 100x6 + 100x7 + 100x8 + 100x9 + 100x10 + 100x11 + 100x12 + 100x13 + 100x14 + 100x15 + 100x16 + 100x17 + 100x18 + 100x19 + 100x20 + 100x21 + 100x22 + 100x23 + 100x24 + 100x25 + 100x26 + 100x27 + 100x28 + 100x29 + 100x30 + 100x31 + 100x32 + 100x33 + 100x34 + 100x35 + 100x36 + 100x37 + 100x38 + 100x39 + 100x40 + 100x41 + 100x42 + 100x43 + 100x44 + 100x45 + 100x46 + 100x47 + 100x48 + 100x49 + 100x50 + 100x51 + 100x52 + 100x53 + 100x54 + 100x55 + 100x56 + 100x57 + 100x58 + 100x59 + 100x60 + 100x61 + 100x62 + 100x63 + 100x64 - y15_21 - y26_30 - y7_26 - y18_26 - y15_39 - y47_62 - y8_9 - y29_41 - y8_18 - y48_54 - y48_63 - y21_46 - y11_23 - y10_36 - y10_45 - y44_47 - y10_54 - y33_56 - y14_15 - y25_61 - y3_24 - y14_24 - y32_60 - y43_60 - y14_33 - y7_12 - y36_48 - y15_25 - y28_53 - y7_30 - y5_60 - y17_62 - y28_62 - y48_49 - y40_45 - y21_50 - y21_59 - y10_49 - y10_58 - y51_59 - y22_32 - y13_51 - y14_28 - y14_37 - y36_43 - y55_56 - y17_39 - y28_39 - y17_48 - y47_61 - y59_63 - y17_57 - y9_53 - y5_64 - y6_29 - y9_62 - y6_38 - y29_49 - y6_56 - y2_13 - y2_22 - y10_35 - y43_50 - y22_27 - y14_23 - y43_59 - y35_55 - y14_32 - y1_62 - y13_64 - y16_60 - y17_25 - y36_38 - y17_34 - y9_30 - y28_43 - y36_56 - y5_50 - y6_24 - y9_57 - y21_22 - y50_58 - y21_31 - y29_44 - y21_40 - y2_8 - y39_57 - y31_53 - y2_26 - y32_36 - y43_45 - y32_54 - y16_46 - y36_51 - y47_51 - y17_56 - y28_56 - y6_28 - y9_61 - y27_60 - y21_35 - y6_46 - y10_16 - y39_61 - y23_53 - y13_27 - y24_27 - y1_34 - y35_36 - y1_43 - y1_52 - y1_61 - y13_63 - y24_63 - y35_63 - y36_37 - y9_20 - y17_42 - y5_49 - y5_58 - y8_51 - y21_30 - y30_60 - y42_62 - y20_34 - y31_34 - y20_43 - y39_56 - y12_39 - y23_39 - y20_52 - y20_61 - y1_29 - y24_31 - y32_44 - y16_27 - y43_44 - y1_38 - y24_40 - y35_40 - y1_47 - y5_8 - y46_55 - y38_51 - y49_51 - y5_26 - y9_24 - y28_37 - y9_33 - y7_63 - y27_50 - y50_61 - y19_55 - y0_60 - y11_60 - y12_25 - y20_38 - y31_38 - y2_11 - y4_30 - y1_15 - y4_48 - y16_31 - y24_44 - y5_12 - y38_46 - y5_21 - y17_23 - y9_19 - y49_55 - y15_62 - y5_39 - y27_36 - y0_37 - y11_37 - y19_59 - y31_33 - y11_64 - y12_29 - y39_46 - y12_38 - y23_47 - y1_10 - y4_43 - y12_56 - y13_21 - y53_57 - y13_30 - y24_30 - y16_26 - y45_62 - y1_37 - y5_7 - y26_48 - y57_63 - y7_44 - y26_57 - y8_27 - y27_40 - y8_36 - y19_36 - y27_49 - y0_32 - y30_36 - y8_45 - y27_58 - y11_41 - y11_50 - y60_64 - y12_42 - y4_47 - y45_48 - y16_21 - y45_57 - y56_57 - y3_60 - y14_60 - y5_11 - y46_49 - y26_43 - y18_39 - y26_61 - y0_18 - y27_44 - y0_27 - y11_27 - y8_40 - y19_49 - y30_49 - y11_45 - y12_19 - y33_51 - y12_28 - y23_28 - y44_60 - y25_56 - y2_63 - y22_41 - y34_43 - y22_50 - y34_52 - y3_46 - y37_48 - y45_61 - y15_20 - y3_64 - y7_25 - y15_38 - y26_38 - y18_34 - y26_47 - y7_43 - y18_43 - y0_4 - y7_52 - y8_17 - y27_30 - y0_13 - y8_35 - y30_35 - y11_40 - y11_49 - y60_63 - y4_10 - y44_46 - y33_55 - y44_55 - y25_51 - y4_28 - y10_62 - y34_38 - y22_63 - y37_61 - y18_20 - y15_33 - y18_29 - y18_38 - y7_47 - y8_12 - y7_56 - y0_26 - y63_64 - y41_54 - y52_54 - y4_14 - y52_63 - y2_44 - y25_46 - y22_31 - y3_27 - y34_42 - y34_51 - y3_54 - y37_56 - y3_63 - y14_63 - y47_60 - y18_33 - y18_42 - y29_39 - y8_16 - y48_61 - y21_44 - y40_57 - y6_64 - y10_34 - y41_49 - y4_9 - y10_43 - y44_54 - y25_50 - y10_61 - y2_57 - y3_22 - y22_35 - y3_31 - y14_31 - y22_44 - y3_40 - y37_42 - y7_19 - y18_19 - y15_32 - y26_32 - y7_28 - y17_60 - y7_37 - y29_34 - y40_43 - y21_39 - y29_52 - y40_61 - y10_29 - y41_44 - y25_27 - y33_49 - y2_43 - y10_56 - y24_58 - y14_35 - y36_41 - y7_14 - y36_50 - y47_50 - y5_53 - y28_55 - y28_64 - y6_27 - y21_25 - y29_47 - y21_43 - y29_56 - y2_38 - y43_48 - y22_25 - y13_53 - y3_30 - y17_32 - y28_32 - y17_41 - y36_54 - y5_48 - y17_50 - y28_50 - y9_46 - y29_33 - y9_64 - y6_49 - y29_51 - y40_51 - y21_47 - y6_58 - y39_55 - y2_15 - y2_24 - y25_26 - y31_60 - y24_39 - y43_52 - y3_25 - y14_25 - y13_57 - y24_57 - y16_62 - y17_36 - y47_49 - y5_43 - y6_17 - y9_50 - y5_61 - y58_64 - y9_59 - y54_57 - y2_28 - y23_60 - y13_34 - y3_11 - y43_47 - y13_43 - y43_56 - y35_61 - y16_57 - y5_20 - y9_27 - y17_40 - y28_40 - y9_36 - y21_28 - y8_58 - y42_60 - y11_63 - y31_41 - y54_61 - y4_42 - y12_55 - y13_20 - y23_55 - y12_64 - y1_27 - y13_29 - y23_64 - y1_36 - y16_34 - y1_45 - y13_47 - y9_13 - y36_39 - y49_58 - y5_42 - y9_40 - y27_48 - y58_63 - y21_23 - y27_57 - y42_55 - y8_62 - y11_58 - y31_36 - y12_32 - y23_32 - y2_9 - y20_45 - y54_56 - y4_37 - y16_29 - y16_38 - y17_21 - y9_26 - y15_60 - y5_37 - y8_39 - y19_39 - y42_50 - y20_22 - y11_53 - y2_4 - y39_53 - y23_36 - y53_55 - y24_28 - y45_60 - y56_60 - y13_37 - y24_37 - y16_33 - y16_42 - y38_39 - y5_14 - y9_12 - y46_61 - y57_61 - y15_55 - y5_32 - y19_34 - y30_34 - y30_43 - y42_45 - y27_56 - y12_13 - y20_26 - y12_22 - y31_35 - y23_49 - y4_45 - y34_46 - y45_46 - y1_21 - y16_19 - y34_55 - y1_30 - y3_58 - y14_58 - y37_60 - y46_56 - y49_52 - y7_46 - y18_55 - y11_25 - y0_34 - y11_34 - y30_47 - y11_43 - y19_56 - y20_21 - y11_52 - y12_17 - y41_53 - y52_53 - y23_26 - y41_62 - y31_39 - y52_62 - y4_31 - y23_44 - y1_16 - y34_50 - y22_57 - y14_53 - y15_27 - y26_27 - y26_36 - y26_45 - y38_47 - y49_56 - y8_15 - y0_11 - y27_37 - y0_20 - y30_33 - y11_29 - y11_38 - y19_51 - y20_25 - y41_57 - y52_57 - y10_60 - y1_20 - y22_52 - y3_48 - y22_61 - y14_57 - y15_31 - y26_31 - y26_40 - y38_42 - y26_49 - y8_10 - y26_58 - y18_54 - y48_55 - y0_15 - y11_15 - y8_28 - y19_28 - y48_64 - y0_24 - y11_33 - y33_39 - y33_48 - y52_61 - y25_44 - y10_64 - y22_29 - y22_47 - y56_58 - y3_52 - y14_52 - y15_17 - y55_62 - y18_31 - y0_19 - y6_53 - y29_55 - y30_32 - y0_28 - y4_16 - y10_50 - y33_52 - y10_59 - y44_61 - y25_57 - y3_20 - y3_29 - y22_42 - y14_38 - y37_40 - y14_47
 Subject to
C1: x0+x1 <=1 
C2: x0+x2 <=1 
C3: x0+x4-y0_4 <=1 
C4: x0+x5 <=1 
C5: x0+x6 <=1 
C6: x0+x9 <=1 
C7: x0+x10 <=1 
C8: x0+x11-y0_11 <=1 
C9: x0+x12 <=1 
C10: x0+x13-y0_13 <=1 
C11: x0+x14 <=1 
C12: x0+x15-y0_15 <=1 
C13: x0+x18-y0_18 <=1 
C14: x0+x19-y0_19 <=1 
C15: x0+x20-y0_20 <=1 
C16: x0+x21 <=1 
C17: x0+x22 <=1 
C18: x0+x24-y0_24 <=1 
C19: x0+x26-y0_26 <=1 
C20: x0+x27-y0_27 <=1 
C21: x0+x28-y0_28 <=1 
C22: x0+x29 <=1 
C23: x0+x30 <=1 
C24: x0+x32-y0_32 <=1 
C25: x0+x34-y0_34 <=1 
C26: x0+x37-y0_37 <=1 
C27: x0+x40 <=1 
C28: x0+x42 <=1 
C29: x0+x43 <=1 
C30: x0+x45 <=1 
C31: x0+x48 <=1 
C32: x0+x50 <=1 
C33: x0+x54 <=1 
C34: x0+x56 <=1 
C35: x0+x58 <=1 
C36: x0+x60-y0_60 <=1 
C37: x0+x62 <=1 
C38: x0+x64 <=1 
C39: x1+x8 <=1 
C40: x1+x9 <=1 
C41: x1+x10-y1_10 <=1 
C42: x1+x11 <=1 
C43: x1+x12 <=1 
C44: x1+x15-y1_15 <=1 
C45: x1+x16-y1_16 <=1 
C46: x1+x19 <=1 
C47: x1+x20-y1_20 <=1 
C48: x1+x21-y1_21 <=1 
C49: x1+x24 <=1 
C50: x1+x25 <=1 
C51: x1+x26 <=1 
C52: x1+x27-y1_27 <=1 
C53: x1+x29-y1_29 <=1 
C54: x1+x30-y1_30 <=1 
C55: x1+x31 <=1 
C56: x1+x33 <=1 
C57: x1+x34-y1_34 <=1 
C58: x1+x36-y1_36 <=1 
C59: x1+x37-y1_37 <=1 
C60: x1+x38-y1_38 <=1 
C61: x1+x39 <=1 
C62: x1+x40 <=1 
C63: x1+x42 <=1 
C64: x1+x43-y1_43 <=1 
C65: x1+x45-y1_45 <=1 
C66: x1+x47-y1_47 <=1 
C67: x1+x51 <=1 
C68: x1+x52-y1_52 <=1 
C69: x1+x53 <=1 
C70: x1+x60 <=1 
C71: x1+x61-y1_61 <=1 
C72: x1+x62-y1_62 <=1 
C73: x1+x64 <=1 
C74: x2+x4-y2_4 <=1 
C75: x2+x5 <=1 
C76: x2+x6 <=1 
C77: x2+x8-y2_8 <=1 
C78: x2+x9-y2_9 <=1 
C79: x2+x10 <=1 
C80: x2+x11-y2_11 <=1 
C81: x2+x13-y2_13 <=1 
C82: x2+x15-y2_15 <=1 
C83: x2+x17 <=1 
C84: x2+x21 <=1 
C85: x2+x22-y2_22 <=1 
C86: x2+x23 <=1 
C87: x2+x24-y2_24 <=1 
C88: x2+x26-y2_26 <=1 
C89: x2+x28-y2_28 <=1 
C90: x2+x31 <=1 
C91: x2+x38-y2_38 <=1 
C92: x2+x42 <=1 
C93: x2+x43-y2_43 <=1 
C94: x2+x44-y2_44 <=1 
C95: x2+x48 <=1 
C96: x2+x49 <=1 
C97: x2+x52 <=1 
C98: x2+x54 <=1 
C99: x2+x57-y2_57 <=1 
C100: x2+x59 <=1 
C101: x2+x63-y2_63 <=1 
C102: x2+x64 <=1 
C103: x3+x4 <=1 
C104: x3+x6 <=1 
C105: x3+x8 <=1 
C106: x3+x10 <=1 
C107: x3+x11-y3_11 <=1 
C108: x3+x14 <=1 
C109: x3+x18 <=1 
C110: x3+x19 <=1 
C111: x3+x20-y3_20 <=1 
C112: x3+x21 <=1 
C113: x3+x22-y3_22 <=1 
C114: x3+x24-y3_24 <=1 
C115: x3+x25-y3_25 <=1 
C116: x3+x27-y3_27 <=1 
C117: x3+x28 <=1 
C118: x3+x29-y3_29 <=1 
C119: x3+x30-y3_30 <=1 
C120: x3+x31-y3_31 <=1 
C121: x3+x34 <=1 
C122: x3+x35 <=1 
C123: x3+x36 <=1 
C124: x3+x37 <=1 
C125: x3+x40-y3_40 <=1 
C126: x3+x41 <=1 
C127: x3+x46-y3_46 <=1 
C128: x3+x47 <=1 
C129: x3+x48-y3_48 <=1 
C130: x3+x50 <=1 
C131: x3+x52-y3_52 <=1 
C132: x3+x54-y3_54 <=1 
C133: x3+x57 <=1 
C134: x3+x58-y3_58 <=1 
C135: x3+x59 <=1 
C136: x3+x60-y3_60 <=1 
C137: x3+x63-y3_63 <=1 
C138: x3+x64-y3_64 <=1 
C139: x4+x8 <=1 
C140: x4+x9-y4_9 <=1 
C141: x4+x10-y4_10 <=1 
C142: x4+x13 <=1 
C143: x4+x14-y4_14 <=1 
C144: x4+x16-y4_16 <=1 
C145: x4+x17 <=1 
C146: x4+x18 <=1 
C147: x4+x22 <=1 
C148: x4+x23 <=1 
C149: x4+x27 <=1 
C150: x4+x28-y4_28 <=1 
C151: x4+x30-y4_30 <=1 
C152: x4+x31-y4_31 <=1 
C153: x4+x33 <=1 
C154: x4+x36 <=1 
C155: x4+x37-y4_37 <=1 
C156: x4+x39 <=1 
C157: x4+x41 <=1 
C158: x4+x42-y4_42 <=1 
C159: x4+x43-y4_43 <=1 
C160: x4+x45-y4_45 <=1 
C161: x4+x47-y4_47 <=1 
C162: x4+x48-y4_48 <=1 
C163: x4+x49 <=1 
C164: x4+x51 <=1 
C165: x4+x53 <=1 
C166: x4+x54 <=1 
C167: x4+x55 <=1 
C168: x4+x58 <=1 
C169: x4+x62 <=1 
C170: x4+x64 <=1 
C171: x5+x7-y5_7 <=1 
C172: x5+x8-y5_8 <=1 
C173: x5+x11-y5_11 <=1 
C174: x5+x12-y5_12 <=1 
C175: x5+x14-y5_14 <=1 
C176: x5+x15 <=1 
C177: x5+x18 <=1 
C178: x5+x20-y5_20 <=1 
C179: x5+x21-y5_21 <=1 
C180: x5+x22 <=1 
C181: x5+x26-y5_26 <=1 
C182: x5+x32-y5_32 <=1 
C183: x5+x34 <=1 
C184: x5+x37-y5_37 <=1 
C185: x5+x39-y5_39 <=1 
C186: x5+x42-y5_42 <=1 
C187: x5+x43-y5_43 <=1 
C188: x5+x44 <=1 
C189: x5+x48-y5_48 <=1 
C190: x5+x49-y5_49 <=1 
C191: x5+x50-y5_50 <=1 
C192: x5+x53-y5_53 <=1 
C193: x5+x57 <=1 
C194: x5+x58-y5_58 <=1 
C195: x5+x59 <=1 
C196: x5+x60-y5_60 <=1 
C197: x5+x61-y5_61 <=1 
C198: x5+x62 <=1 
C199: x5+x64-y5_64 <=1 
C200: x6+x7 <=1 
C201: x6+x8 <=1 
C202: x6+x9 <=1 
C203: x6+x13 <=1 
C204: x6+x14 <=1 
C205: x6+x16 <=1 
C206: x6+x17-y6_17 <=1 
C207: x6+x19 <=1 
C208: x6+x20 <=1 
C209: x6+x21 <=1 
C210: x6+x22 <=1 
C211: x6+x24-y6_24 <=1 
C212: x6+x27-y6_27 <=1 
C213: x6+x28-y6_28 <=1 
C214: x6+x29-y6_29 <=1 
C215: x6+x33 <=1 
C216: x6+x35 <=1 
C217: x6+x36 <=1 
C218: x6+x38-y6_38 <=1 
C219: x6+x45 <=1 
C220: x6+x46-y6_46 <=1 
C221: x6+x48 <=1 
C222: x6+x49-y6_49 <=1 
C223: x6+x50 <=1 
C224: x6+x52 <=1 
C225: x6+x53-y6_53 <=1 
C226: x6+x55 <=1 
C227: x6+x56-y6_56 <=1 
C228: x6+x57 <=1 
C229: x6+x58-y6_58 <=1 
C230: x6+x64-y6_64 <=1 
C231: x7+x8 <=1 
C232: x7+x9 <=1 
C233: x7+x11 <=1 
C234: x7+x12-y7_12 <=1 
C235: x7+x14-y7_14 <=1 
C236: x7+x15 <=1 
C237: x7+x16 <=1 
C238: x7+x18 <=1 
C239: x7+x19-y7_19 <=1 
C240: x7+x24 <=1 
C241: x7+x25-y7_25 <=1 
C242: x7+x26-y7_26 <=1 
C243: x7+x27 <=1 
C244: x7+x28-y7_28 <=1 
C245: x7+x30-y7_30 <=1 
C246: x7+x31 <=1 
C247: x7+x32 <=1 
C248: x7+x33 <=1 
C249: x7+x37-y7_37 <=1 
C250: x7+x39 <=1 
C251: x7+x43-y7_43 <=1 
C252: x7+x44-y7_44 <=1 
C253: x7+x46-y7_46 <=1 
C254: x7+x47-y7_47 <=1 
C255: x7+x48 <=1 
C256: x7+x51 <=1 
C257: x7+x52-y7_52 <=1 
C258: x7+x54 <=1 
C259: x7+x55 <=1 
C260: x7+x56-y7_56 <=1 
C261: x7+x59 <=1 
C262: x7+x63-y7_63 <=1 
C263: x8+x9-y8_9 <=1 
C264: x8+x10-y8_10 <=1 
C265: x8+x11 <=1 
C266: x8+x12-y8_12 <=1 
C267: x8+x13 <=1 
C268: x8+x15-y8_15 <=1 
C269: x8+x16-y8_16 <=1 
C270: x8+x17-y8_17 <=1 
C271: x8+x18-y8_18 <=1 
C272: x8+x21 <=1 
C273: x8+x23 <=1 
C274: x8+x25 <=1 
C275: x8+x27-y8_27 <=1 
C276: x8+x28-y8_28 <=1 
C277: x8+x29 <=1 
C278: x8+x31 <=1 
C279: x8+x32 <=1 
C280: x8+x35-y8_35 <=1 
C281: x8+x36-y8_36 <=1 
C282: x8+x37 <=1 
C283: x8+x38 <=1 
C284: x8+x39-y8_39 <=1 
C285: x8+x40-y8_40 <=1 
C286: x8+x41 <=1 
C287: x8+x42 <=1 
C288: x8+x43 <=1 
C289: x8+x44 <=1 
C290: x8+x45-y8_45 <=1 
C291: x8+x48 <=1 
C292: x8+x49 <=1 
C293: x8+x50 <=1 
C294: x8+x51-y8_51 <=1 
C295: x8+x52 <=1 
C296: x8+x53 <=1 
C297: x8+x56 <=1 
C298: x8+x58-y8_58 <=1 
C299: x8+x62-y8_62 <=1 
C300: x9+x10 <=1 
C301: x9+x11 <=1 
C302: x9+x12-y9_12 <=1 
C303: x9+x13-y9_13 <=1 
C304: x9+x14 <=1 
C305: x9+x15 <=1 
C306: x9+x17 <=1 
C307: x9+x19-y9_19 <=1 
C308: x9+x20-y9_20 <=1 
C309: x9+x24-y9_24 <=1 
C310: x9+x26-y9_26 <=1 
C311: x9+x27-y9_27 <=1 
C312: x9+x28 <=1 
C313: x9+x29 <=1 
C314: x9+x30-y9_30 <=1 
C315: x9+x33-y9_33 <=1 
C316: x9+x34 <=1 
C317: x9+x36-y9_36 <=1 
C318: x9+x39 <=1 
C319: x9+x40-y9_40 <=1 
C320: x9+x42 <=1 
C321: x9+x44 <=1 
C322: x9+x46-y9_46 <=1 
C323: x9+x47 <=1 
C324: x9+x49 <=1 
C325: x9+x50-y9_50 <=1 
C326: x9+x53-y9_53 <=1 
C327: x9+x54 <=1 
C328: x9+x57-y9_57 <=1 
C329: x9+x59-y9_59 <=1 
C330: x9+x60 <=1 
C331: x9+x61-y9_61 <=1 
C332: x9+x62-y9_62 <=1 
C333: x9+x63 <=1 
C334: x9+x64-y9_64 <=1 
C335: x10+x13 <=1 
C336: x10+x15 <=1 
C337: x10+x16-y10_16 <=1 
C338: x10+x17 <=1 
C339: x10+x18 <=1 
C340: x10+x20 <=1 
C341: x10+x22 <=1 
C342: x10+x24 <=1 
C343: x10+x27 <=1 
C344: x10+x29-y10_29 <=1 
C345: x10+x31 <=1 
C346: x10+x33 <=1 
C347: x10+x34-y10_34 <=1 
C348: x10+x35-y10_35 <=1 
C349: x10+x36-y10_36 <=1 
C350: x10+x41 <=1 
C351: x10+x43-y10_43 <=1 
C352: x10+x44 <=1 
C353: x10+x45-y10_45 <=1 
C354: x10+x47 <=1 
C355: x10+x48 <=1 
C356: x10+x49-y10_49 <=1 
C357: x10+x50-y10_50 <=1 
C358: x10+x51 <=1 
C359: x10+x52 <=1 
C360: x10+x54-y10_54 <=1 
C361: x10+x55 <=1 
C362: x10+x56-y10_56 <=1 
C363: x10+x58-y10_58 <=1 
C364: x10+x59-y10_59 <=1 
C365: x10+x60-y10_60 <=1 
C366: x10+x61-y10_61 <=1 
C367: x10+x62-y10_62 <=1 
C368: x10+x63 <=1 
C369: x10+x64-y10_64 <=1 
C370: x11+x14 <=1 
C371: x11+x15-y11_15 <=1 
C372: x11+x16 <=1 
C373: x11+x17 <=1 
C374: x11+x19 <=1 
C375: x11+x22 <=1 
C376: x11+x23-y11_23 <=1 
C377: x11+x25-y11_25 <=1 
C378: x11+x27-y11_27 <=1 
C379: x11+x29-y11_29 <=1 
C380: x11+x30 <=1 
C381: x11+x32 <=1 
C382: x11+x33-y11_33 <=1 
C383: x11+x34-y11_34 <=1 
C384: x11+x35 <=1 
C385: x11+x37-y11_37 <=1 
C386: x11+x38-y11_38 <=1 
C387: x11+x39 <=1 
C388: x11+x40-y11_40 <=1 
C389: x11+x41-y11_41 <=1 
C390: x11+x42 <=1 
C391: x11+x43-y11_43 <=1 
C392: x11+x45-y11_45 <=1 
C393: x11+x47 <=1 
C394: x11+x49-y11_49 <=1 
C395: x11+x50-y11_50 <=1 
C396: x11+x51 <=1 
C397: x11+x52-y11_52 <=1 
C398: x11+x53-y11_53 <=1 
C399: x11+x54 <=1 
C400: x11+x55 <=1 
C401: x11+x57 <=1 
C402: x11+x58-y11_58 <=1 
C403: x11+x60-y11_60 <=1 
C404: x11+x61 <=1 
C405: x11+x63-y11_63 <=1 
C406: x11+x64-y11_64 <=1 
C407: x12+x13-y12_13 <=1 
C408: x12+x14 <=1 
C409: x12+x16 <=1 
C410: x12+x17-y12_17 <=1 
C411: x12+x19-y12_19 <=1 
C412: x12+x22-y12_22 <=1 
C413: x12+x25-y12_25 <=1 
C414: x12+x27 <=1 
C415: x12+x28-y12_28 <=1 
C416: x12+x29-y12_29 <=1 
C417: x12+x31 <=1 
C418: x12+x32-y12_32 <=1 
C419: x12+x34 <=1 
C420: x12+x35 <=1 
C421: x12+x37 <=1 
C422: x12+x38-y12_38 <=1 
C423: x12+x39-y12_39 <=1 
C424: x12+x40 <=1 
C425: x12+x42-y12_42 <=1 
C426: x12+x44 <=1 
C427: x12+x45 <=1 
C428: x12+x47 <=1 
C429: x12+x51 <=1 
C430: x12+x54 <=1 
C431: x12+x55-y12_55 <=1 
C432: x12+x56-y12_56 <=1 
C433: x12+x59 <=1 
C434: x12+x60 <=1 
C435: x12+x64-y12_64 <=1 
C436: x13+x14 <=1 
C437: x13+x17 <=1 
C438: x13+x20-y13_20 <=1 
C439: x13+x21-y13_21 <=1 
C440: x13+x23 <=1 
C441: x13+x25 <=1 
C442: x13+x26 <=1 
C443: x13+x27-y13_27 <=1 
C444: x13+x29-y13_29 <=1 
C445: x13+x30-y13_30 <=1 
C446: x13+x31 <=1 
C447: x13+x33 <=1 
C448: x13+x34-y13_34 <=1 
C449: x13+x35 <=1 
C450: x13+x37-y13_37 <=1 
C451: x13+x40 <=1 
C452: x13+x41 <=1 
C453: x13+x42 <=1 
C454: x13+x43-y13_43 <=1 
C455: x13+x44 <=1 
C456: x13+x47-y13_47 <=1 
C457: x13+x48 <=1 
C458: x13+x50 <=1 
C459: x13+x51-y13_51 <=1 
C460: x13+x52 <=1 
C461: x13+x53-y13_53 <=1 
C462: x13+x54 <=1 
C463: x13+x55 <=1 
C464: x13+x56 <=1 
C465: x13+x57-y13_57 <=1 
C466: x13+x58 <=1 
C467: x13+x59 <=1 
C468: x13+x61 <=1 
C469: x13+x63-y13_63 <=1 
C470: x13+x64-y13_64 <=1 
C471: x14+x15-y14_15 <=1 
C472: x14+x17 <=1 
C473: x14+x18 <=1 
C474: x14+x19 <=1 
C475: x14+x21 <=1 
C476: x14+x23-y14_23 <=1 
C477: x14+x24-y14_24 <=1 
C478: x14+x25-y14_25 <=1 
C479: x14+x26 <=1 
C480: x14+x27 <=1 
C481: x14+x28-y14_28 <=1 
C482: x14+x29 <=1 
C483: x14+x31-y14_31 <=1 
C484: x14+x32-y14_32 <=1 
C485: x14+x33-y14_33 <=1 
C486: x14+x34 <=1 
C487: x14+x35-y14_35 <=1 
C488: x14+x37-y14_37 <=1 
C489: x14+x38-y14_38 <=1 
C490: x14+x39 <=1 
C491: x14+x41 <=1 
C492: x14+x44 <=1 
C493: x14+x45 <=1 
C494: x14+x46 <=1 
C495: x14+x47-y14_47 <=1 
C496: x14+x48 <=1 
C497: x14+x51 <=1 
C498: x14+x52-y14_52 <=1 
C499: x14+x53-y14_53 <=1 
C500: x14+x55 <=1 
C501: x14+x57-y14_57 <=1 
C502: x14+x58-y14_58 <=1 
C503: x14+x60-y14_60 <=1 
C504: x14+x61 <=1 
C505: x14+x62 <=1 
C506: x14+x63-y14_63 <=1 
C507: x14+x64 <=1 
C508: x15+x16 <=1 
C509: x15+x17-y15_17 <=1 
C510: x15+x18 <=1 
C511: x15+x19 <=1 
C512: x15+x20-y15_20 <=1 
C513: x15+x21-y15_21 <=1 
C514: x15+x25-y15_25 <=1 
C515: x15+x26 <=1 
C516: x15+x27-y15_27 <=1 
C517: x15+x31-y15_31 <=1 
C518: x15+x32-y15_32 <=1 
C519: x15+x33-y15_33 <=1 
C520: x15+x37 <=1 
C521: x15+x38-y15_38 <=1 
C522: x15+x39-y15_39 <=1 
C523: x15+x40 <=1 
C524: x15+x42 <=1 
C525: x15+x47 <=1 
C526: x15+x48 <=1 
C527: x15+x50 <=1 
C528: x15+x52 <=1 
C529: x15+x55-y15_55 <=1 
C530: x15+x57 <=1 
C531: x15+x59 <=1 
C532: x15+x60-y15_60 <=1 
C533: x15+x62-y15_62 <=1 
C534: x15+x63 <=1 
C535: x16+x17 <=1 
C536: x16+x19-y16_19 <=1 
C537: x16+x21-y16_21 <=1 
C538: x16+x22 <=1 
C539: x16+x23 <=1 
C540: x16+x24 <=1 
C541: x16+x25 <=1 
C542: x16+x26-y16_26 <=1 
C543: x16+x27-y16_27 <=1 
C544: x16+x29-y16_29 <=1 
C545: x16+x30 <=1 
C546: x16+x31-y16_31 <=1 
C547: x16+x32 <=1 
C548: x16+x33-y16_33 <=1 
C549: x16+x34-y16_34 <=1 
C550: x16+x36 <=1 
C551: x16+x38-y16_38 <=1 
C552: x16+x42-y16_42 <=1 
C553: x16+x46-y16_46 <=1 
C554: x16+x48 <=1 
C555: x16+x52 <=1 
C556: x16+x55 <=1 
C557: x16+x57-y16_57 <=1 
C558: x16+x60-y16_60 <=1 
C559: x16+x61 <=1 
C560: x16+x62-y16_62 <=1 
C561: x16+x63 <=1 
C562: x17+x19 <=1 
C563: x17+x20 <=1 
C564: x17+x21-y17_21 <=1 
C565: x17+x22 <=1 
C566: x17+x23-y17_23 <=1 
C567: x17+x25-y17_25 <=1 
C568: x17+x26 <=1 
C569: x17+x27 <=1 
C570: x17+x28 <=1 
C571: x17+x29 <=1 
C572: x17+x30 <=1 
C573: x17+x31 <=1 
C574: x17+x32-y17_32 <=1 
C575: x17+x34-y17_34 <=1 
C576: x17+x36-y17_36 <=1 
C577: x17+x38 <=1 
C578: x17+x39-y17_39 <=1 
C579: x17+x40-y17_40 <=1 
C580: x17+x41-y17_41 <=1 
C581: x17+x42-y17_42 <=1 
C582: x17+x44 <=1 
C583: x17+x46 <=1 
C584: x17+x48-y17_48 <=1 
C585: x17+x49 <=1 
C586: x17+x50-y17_50 <=1 
C587: x17+x53 <=1 
C588: x17+x55 <=1 
C589: x17+x56-y17_56 <=1 
C590: x17+x57-y17_57 <=1 
C591: x17+x59 <=1 
C592: x17+x60-y17_60 <=1 
C593: x17+x62-y17_62 <=1 
C594: x17+x63 <=1 
C595: x18+x19-y18_19 <=1 
C596: x18+x20-y18_20 <=1 
C597: x18+x21 <=1 
C598: x18+x26-y18_26 <=1 
C599: x18+x27 <=1 
C600: x18+x29-y18_29 <=1 
C601: x18+x31-y18_31 <=1 
C602: x18+x33-y18_33 <=1 
C603: x18+x34-y18_34 <=1 
C604: x18+x35 <=1 
C605: x18+x36 <=1 
C606: x18+x38-y18_38 <=1 
C607: x18+x39-y18_39 <=1 
C608: x18+x41 <=1 
C609: x18+x42-y18_42 <=1 
C610: x18+x43-y18_43 <=1 
C611: x18+x45 <=1 
C612: x18+x46 <=1 
C613: x18+x50 <=1 
C614: x18+x54-y18_54 <=1 
C615: x18+x55-y18_55 <=1 
C616: x18+x56 <=1 
C617: x18+x60 <=1 
C618: x18+x63 <=1 
C619: x18+x64 <=1 
C620: x19+x21 <=1 
C621: x19+x23 <=1 
C622: x19+x24 <=1 
C623: x19+x25 <=1 
C624: x19+x28-y19_28 <=1 
C625: x19+x30 <=1 
C626: x19+x31 <=1 
C627: x19+x32 <=1 
C628: x19+x34-y19_34 <=1 
C629: x19+x36-y19_36 <=1 
C630: x19+x37 <=1 
C631: x19+x39-y19_39 <=1 
C632: x19+x43 <=1 
C633: x19+x45 <=1 
C634: x19+x46 <=1 
C635: x19+x47 <=1 
C636: x19+x48 <=1 
C637: x19+x49-y19_49 <=1 
C638: x19+x51-y19_51 <=1 
C639: x19+x55-y19_55 <=1 
C640: x19+x56-y19_56 <=1 
C641: x19+x59-y19_59 <=1 
C642: x19+x61 <=1 
C643: x19+x62 <=1 
C644: x19+x64 <=1 
C645: x20+x21-y20_21 <=1 
C646: x20+x22-y20_22 <=1 
C647: x20+x24 <=1 
C648: x20+x25-y20_25 <=1 
C649: x20+x26-y20_26 <=1 
C650: x20+x31 <=1 
C651: x20+x34-y20_34 <=1 
C652: x20+x35 <=1 
C653: x20+x37 <=1 
C654: x20+x38-y20_38 <=1 
C655: x20+x39 <=1 
C656: x20+x43-y20_43 <=1 
C657: x20+x45-y20_45 <=1 
C658: x20+x49 <=1 
C659: x20+x50 <=1 
C660: x20+x51 <=1 
C661: x20+x52-y20_52 <=1 
C662: x20+x54 <=1 
C663: x20+x55 <=1 
C664: x20+x56 <=1 
C665: x20+x59 <=1 
C666: x20+x61-y20_61 <=1 
C667: x20+x64 <=1 
C668: x21+x22-y21_22 <=1 
C669: x21+x23-y21_23 <=1 
C670: x21+x24 <=1 
C671: x21+x25-y21_25 <=1 
C672: x21+x28-y21_28 <=1 
C673: x21+x30-y21_30 <=1 
C674: x21+x31-y21_31 <=1 
C675: x21+x33 <=1 
C676: x21+x35-y21_35 <=1 
C677: x21+x39-y21_39 <=1 
C678: x21+x40-y21_40 <=1 
C679: x21+x41 <=1 
C680: x21+x43-y21_43 <=1 
C681: x21+x44-y21_44 <=1 
C682: x21+x46-y21_46 <=1 
C683: x21+x47-y21_47 <=1 
C684: x21+x50-y21_50 <=1 
C685: x21+x53 <=1 
C686: x21+x58 <=1 
C687: x21+x59-y21_59 <=1 
C688: x21+x63 <=1 
C689: x22+x25-y22_25 <=1 
C690: x22+x27-y22_27 <=1 
C691: x22+x29-y22_29 <=1 
C692: x22+x31-y22_31 <=1 
C693: x22+x32-y22_32 <=1 
C694: x22+x33 <=1 
C695: x22+x34 <=1 
C696: x22+x35-y22_35 <=1 
C697: x22+x39 <=1 
C698: x22+x41-y22_41 <=1 
C699: x22+x42-y22_42 <=1 
C700: x22+x44-y22_44 <=1 
C701: x22+x45 <=1 
C702: x22+x47-y22_47 <=1 
C703: x22+x50-y22_50 <=1 
C704: x22+x52-y22_52 <=1 
C705: x22+x55 <=1 
C706: x22+x57-y22_57 <=1 
C707: x22+x59 <=1 
C708: x22+x60 <=1 
C709: x22+x61-y22_61 <=1 
C710: x22+x62 <=1 
C711: x22+x63-y22_63 <=1 
C712: x22+x64 <=1 
C713: x23+x24 <=1 
C714: x23+x26-y23_26 <=1 
C715: x23+x27 <=1 
C716: x23+x28-y23_28 <=1 
C717: x23+x30 <=1 
C718: x23+x32-y23_32 <=1 
C719: x23+x36-y23_36 <=1 
C720: x23+x38 <=1 
C721: x23+x39-y23_39 <=1 
C722: x23+x40 <=1 
C723: x23+x41 <=1 
C724: x23+x42 <=1 
C725: x23+x43 <=1 
C726: x23+x44-y23_44 <=1 
C727: x23+x47-y23_47 <=1 
C728: x23+x48 <=1 
C729: x23+x49-y23_49 <=1 
C730: x23+x50 <=1 
C731: x23+x53-y23_53 <=1 
C732: x23+x54 <=1 
C733: x23+x55-y23_55 <=1 
C734: x23+x57 <=1 
C735: x23+x60-y23_60 <=1 
C736: x23+x61 <=1 
C737: x23+x64-y23_64 <=1 
C738: x24+x25 <=1 
C739: x24+x26 <=1 
C740: x24+x27-y24_27 <=1 
C741: x24+x28-y24_28 <=1 
C742: x24+x30-y24_30 <=1 
C743: x24+x31-y24_31 <=1 
C744: x24+x32 <=1 
C745: x24+x33 <=1 
C746: x24+x34 <=1 
C747: x24+x37-y24_37 <=1 
C748: x24+x39-y24_39 <=1 
C749: x24+x40-y24_40 <=1 
C750: x24+x41 <=1 
C751: x24+x42 <=1 
C752: x24+x43 <=1 
C753: x24+x44-y24_44 <=1 
C754: x24+x47 <=1 
C755: x24+x49 <=1 
C756: x24+x50 <=1 
C757: x24+x55 <=1 
C758: x24+x57-y24_57 <=1 
C759: x24+x58-y24_58 <=1 
C760: x24+x61 <=1 
C761: x24+x62 <=1 
C762: x24+x63-y24_63 <=1 
C763: x24+x64 <=1 
C764: x25+x26-y25_26 <=1 
C765: x25+x27-y25_27 <=1 
C766: x25+x29 <=1 
C767: x25+x30 <=1 
C768: x25+x31 <=1 
C769: x25+x32 <=1 
C770: x25+x34 <=1 
C771: x25+x37 <=1 
C772: x25+x41 <=1 
C773: x25+x43 <=1 
C774: x25+x44-y25_44 <=1 
C775: x25+x46-y25_46 <=1 
C776: x25+x49 <=1 
C777: x25+x50-y25_50 <=1 
C778: x25+x51-y25_51 <=1 
C779: x25+x52 <=1 
C780: x25+x55 <=1 
C781: x25+x56-y25_56 <=1 
C782: x25+x57-y25_57 <=1 
C783: x25+x58 <=1 
C784: x25+x61-y25_61 <=1 
C785: x25+x62 <=1 
C786: x25+x64 <=1 
C787: x26+x27-y26_27 <=1 
C788: x26+x30-y26_30 <=1 
C789: x26+x31-y26_31 <=1 
C790: x26+x32-y26_32 <=1 
C791: x26+x36-y26_36 <=1 
C792: x26+x38-y26_38 <=1 
C793: x26+x40-y26_40 <=1 
C794: x26+x41 <=1 
C795: x26+x42 <=1 
C796: x26+x43-y26_43 <=1 
C797: x26+x45-y26_45 <=1 
C798: x26+x47-y26_47 <=1 
C799: x26+x48-y26_48 <=1 
C800: x26+x49-y26_49 <=1 
C801: x26+x53 <=1 
C802: x26+x54 <=1 
C803: x26+x57-y26_57 <=1 
C804: x26+x58-y26_58 <=1 
C805: x26+x59 <=1 
C806: x26+x61-y26_61 <=1 
C807: x26+x63 <=1 
C808: x26+x64 <=1 
C809: x27+x30-y27_30 <=1 
C810: x27+x31 <=1 
C811: x27+x32 <=1 
C812: x27+x34 <=1 
C813: x27+x36-y27_36 <=1 
C814: x27+x37-y27_37 <=1 
C815: x27+x38 <=1 
C816: x27+x40-y27_40 <=1 
C817: x27+x42 <=1 
C818: x27+x44-y27_44 <=1 
C819: x27+x45 <=1 
C820: x27+x48-y27_48 <=1 
C821: x27+x49-y27_49 <=1 
C822: x27+x50-y27_50 <=1 
C823: x27+x51 <=1 
C824: x27+x52 <=1 
C825: x27+x55 <=1 
C826: x27+x56-y27_56 <=1 
C827: x27+x57-y27_57 <=1 
C828: x27+x58-y27_58 <=1 
C829: x27+x59 <=1 
C830: x27+x60-y27_60 <=1 
C831: x28+x29 <=1 
C832: x28+x32-y28_32 <=1 
C833: x28+x33 <=1 
C834: x28+x34 <=1 
C835: x28+x37-y28_37 <=1 
C836: x28+x38 <=1 
C837: x28+x39-y28_39 <=1 
C838: x28+x40-y28_40 <=1 
C839: x28+x43-y28_43 <=1 
C840: x28+x45 <=1 
C841: x28+x47 <=1 
C842: x28+x48 <=1 
C843: x28+x50-y28_50 <=1 
C844: x28+x53-y28_53 <=1 
C845: x28+x55-y28_55 <=1 
C846: x28+x56-y28_56 <=1 
C847: x28+x59 <=1 
C848: x28+x62-y28_62 <=1 
C849: x28+x63 <=1 
C850: x28+x64-y28_64 <=1 
C851: x29+x31 <=1 
C852: x29+x33-y29_33 <=1 
C853: x29+x34-y29_34 <=1 
C854: x29+x35 <=1 
C855: x29+x36 <=1 
C856: x29+x39-y29_39 <=1 
C857: x29+x41-y29_41 <=1 
C858: x29+x42 <=1 
C859: x29+x44-y29_44 <=1 
C860: x29+x47-y29_47 <=1 
C861: x29+x49-y29_49 <=1 
C862: x29+x51-y29_51 <=1 
C863: x29+x52-y29_52 <=1 
C864: x29+x54 <=1 
C865: x29+x55-y29_55 <=1 
C866: x29+x56-y29_56 <=1 
C867: x29+x57 <=1 
C868: x29+x59 <=1 
C869: x29+x60 <=1 
C870: x29+x63 <=1 
C871: x30+x31 <=1 
C872: x30+x32-y30_32 <=1 
C873: x30+x33-y30_33 <=1 
C874: x30+x34-y30_34 <=1 
C875: x30+x35-y30_35 <=1 
C876: x30+x36-y30_36 <=1 
C877: x30+x37 <=1 
C878: x30+x43-y30_43 <=1 
C879: x30+x44 <=1 
C880: x30+x47-y30_47 <=1 
C881: x30+x48 <=1 
C882: x30+x49-y30_49 <=1 
C883: x30+x51 <=1 
C884: x30+x57 <=1 
C885: x30+x60-y30_60 <=1 
C886: x30+x61 <=1 
C887: x30+x62 <=1 
C888: x31+x32 <=1 
C889: x31+x33-y31_33 <=1 
C890: x31+x34-y31_34 <=1 
C891: x31+x35-y31_35 <=1 
C892: x31+x36-y31_36 <=1 
C893: x31+x38-y31_38 <=1 
C894: x31+x39-y31_39 <=1 
C895: x31+x41-y31_41 <=1 
C896: x31+x42 <=1 
C897: x31+x46 <=1 
C898: x31+x47 <=1 
C899: x31+x49 <=1 
C900: x31+x50 <=1 
C901: x31+x52 <=1 
C902: x31+x53-y31_53 <=1 
C903: x31+x56 <=1 
C904: x31+x57 <=1 
C905: x31+x60-y31_60 <=1 
C906: x31+x61 <=1 
C907: x31+x62 <=1 
C908: x31+x63 <=1 
C909: x31+x64 <=1 
C910: x32+x33 <=1 
C911: x32+x36-y32_36 <=1 
C912: x32+x37 <=1 
C913: x32+x38 <=1 
C914: x32+x41 <=1 
C915: x32+x43 <=1 
C916: x32+x44-y32_44 <=1 
C917: x32+x46 <=1 
C918: x32+x48 <=1 
C919: x32+x51 <=1 
C920: x32+x54-y32_54 <=1 
C921: x32+x56 <=1 
C922: x32+x58 <=1 
C923: x32+x60-y32_60 <=1 
C924: x32+x62 <=1 
C925: x33+x34 <=1 
C926: x33+x38 <=1 
C927: x33+x39-y33_39 <=1 
C928: x33+x42 <=1 
C929: x33+x47 <=1 
C930: x33+x48-y33_48 <=1 
C931: x33+x49-y33_49 <=1 
C932: x33+x51-y33_51 <=1 
C933: x33+x52-y33_52 <=1 
C934: x33+x55-y33_55 <=1 
C935: x33+x56-y33_56 <=1 
C936: x33+x57 <=1 
C937: x33+x58 <=1 
C938: x33+x59 <=1 
C939: x33+x61 <=1 
C940: x33+x64 <=1 
C941: x34+x36 <=1 
C942: x34+x38-y34_38 <=1 
C943: x34+x42-y34_42 <=1 
C944: x34+x43-y34_43 <=1 
C945: x34+x45 <=1 
C946: x34+x46-y34_46 <=1 
C947: x34+x47 <=1 
C948: x34+x50-y34_50 <=1 
C949: x34+x51-y34_51 <=1 
C950: x34+x52-y34_52 <=1 
C951: x34+x54 <=1 
C952: x34+x55-y34_55 <=1 
C953: x34+x56 <=1 
C954: x34+x61 <=1 
C955: x35+x36-y35_36 <=1 
C956: x35+x37 <=1 
C957: x35+x40-y35_40 <=1 
C958: x35+x41 <=1 
C959: x35+x44 <=1 
C960: x35+x45 <=1 
C961: x35+x49 <=1 
C962: x35+x51 <=1 
C963: x35+x52 <=1 
C964: x35+x55-y35_55 <=1 
C965: x35+x59 <=1 
C966: x35+x61-y35_61 <=1 
C967: x35+x63-y35_63 <=1 
C968: x35+x64 <=1 
C969: x36+x37-y36_37 <=1 
C970: x36+x38-y36_38 <=1 
C971: x36+x39-y36_39 <=1 
C972: x36+x41-y36_41 <=1 
C973: x36+x43-y36_43 <=1 
C974: x36+x46 <=1 
C975: x36+x48-y36_48 <=1 
C976: x36+x49 <=1 
C977: x36+x50-y36_50 <=1 
C978: x36+x51-y36_51 <=1 
C979: x36+x52 <=1 
C980: x36+x53 <=1 
C981: x36+x54-y36_54 <=1 
C982: x36+x56-y36_56 <=1 
C983: x36+x57 <=1 
C984: x36+x59 <=1 
C985: x36+x60 <=1 
C986: x37+x40-y37_40 <=1 
C987: x37+x41 <=1 
C988: x37+x42-y37_42 <=1 
C989: x37+x43 <=1 
C990: x37+x44 <=1 
C991: x37+x46 <=1 
C992: x37+x47 <=1 
C993: x37+x48-y37_48 <=1 
C994: x37+x50 <=1 
C995: x37+x52 <=1 
C996: x37+x55 <=1 
C997: x37+x56-y37_56 <=1 
C998: x37+x58 <=1 
C999: x37+x60-y37_60 <=1 
C1000: x37+x61-y37_61 <=1 
C1001: x37+x62 <=1 
C1002: x37+x63 <=1 
C1003: x38+x39-y38_39 <=1 
C1004: x38+x40 <=1 
C1005: x38+x42-y38_42 <=1 
C1006: x38+x44 <=1 
C1007: x38+x46-y38_46 <=1 
C1008: x38+x47-y38_47 <=1 
C1009: x38+x48 <=1 
C1010: x38+x51-y38_51 <=1 
C1011: x38+x52 <=1 
C1012: x38+x54 <=1 
C1013: x38+x57 <=1 
C1014: x38+x59 <=1 
C1015: x38+x60 <=1 
C1016: x38+x62 <=1 
C1017: x38+x63 <=1 
C1018: x39+x40 <=1 
C1019: x39+x41 <=1 
C1020: x39+x44 <=1 
C1021: x39+x45 <=1 
C1022: x39+x46-y39_46 <=1 
C1023: x39+x47 <=1 
C1024: x39+x49 <=1 
C1025: x39+x51 <=1 
C1026: x39+x52 <=1 
C1027: x39+x53-y39_53 <=1 
C1028: x39+x54 <=1 
C1029: x39+x55-y39_55 <=1 
C1030: x39+x56-y39_56 <=1 
C1031: x39+x57-y39_57 <=1 
C1032: x39+x58 <=1 
C1033: x39+x59 <=1 
C1034: x39+x60 <=1 
C1035: x39+x61-y39_61 <=1 
C1036: x39+x62 <=1 
C1037: x39+x63 <=1 
C1038: x40+x43-y40_43 <=1 
C1039: x40+x44 <=1 
C1040: x40+x45-y40_45 <=1 
C1041: x40+x48 <=1 
C1042: x40+x49 <=1 
C1043: x40+x51-y40_51 <=1 
C1044: x40+x52 <=1 
C1045: x40+x55 <=1 
C1046: x40+x57-y40_57 <=1 
C1047: x40+x59 <=1 
C1048: x40+x60 <=1 
C1049: x40+x61-y40_61 <=1 
C1050: x40+x62 <=1 
C1051: x40+x64 <=1 
C1052: x41+x44-y41_44 <=1 
C1053: x41+x45 <=1 
C1054: x41+x46 <=1 
C1055: x41+x49-y41_49 <=1 
C1056: x41+x52 <=1 
C1057: x41+x53-y41_53 <=1 
C1058: x41+x54-y41_54 <=1 
C1059: x41+x57-y41_57 <=1 
C1060: x41+x58 <=1 
C1061: x41+x62-y41_62 <=1 
C1062: x41+x63 <=1 
C1063: x42+x44 <=1 
C1064: x42+x45-y42_45 <=1 
C1065: x42+x47 <=1 
C1066: x42+x48 <=1 
C1067: x42+x50-y42_50 <=1 
C1068: x42+x51 <=1 
C1069: x42+x53 <=1 
C1070: x42+x54 <=1 
C1071: x42+x55-y42_55 <=1 
C1072: x42+x58 <=1 
C1073: x42+x59 <=1 
C1074: x42+x60-y42_60 <=1 
C1075: x42+x61 <=1 
C1076: x42+x62-y42_62 <=1 
C1077: x42+x64 <=1 
C1078: x43+x44-y43_44 <=1 
C1079: x43+x45-y43_45 <=1 
C1080: x43+x46 <=1 
C1081: x43+x47-y43_47 <=1 
C1082: x43+x48-y43_48 <=1 
C1083: x43+x50-y43_50 <=1 
C1084: x43+x51 <=1 
C1085: x43+x52-y43_52 <=1 
C1086: x43+x53 <=1 
C1087: x43+x56-y43_56 <=1 
C1088: x43+x57 <=1 
C1089: x43+x58 <=1 
C1090: x43+x59-y43_59 <=1 
C1091: x43+x60-y43_60 <=1 
C1092: x44+x45 <=1 
C1093: x44+x46-y44_46 <=1 
C1094: x44+x47-y44_47 <=1 
C1095: x44+x50 <=1 
C1096: x44+x51 <=1 
C1097: x44+x52 <=1 
C1098: x44+x53 <=1 
C1099: x44+x54-y44_54 <=1 
C1100: x44+x55-y44_55 <=1 
C1101: x44+x56 <=1 
C1102: x44+x60-y44_60 <=1 
C1103: x44+x61-y44_61 <=1 
C1104: x44+x64 <=1 
C1105: x45+x46-y45_46 <=1 
C1106: x45+x48-y45_48 <=1 
C1107: x45+x51 <=1 
C1108: x45+x53 <=1 
C1109: x45+x54 <=1 
C1110: x45+x57-y45_57 <=1 
C1111: x45+x60-y45_60 <=1 
C1112: x45+x61-y45_61 <=1 
C1113: x45+x62-y45_62 <=1 
C1114: x45+x63 <=1 
C1115: x46+x49-y46_49 <=1 
C1116: x46+x53 <=1 
C1117: x46+x54 <=1 
C1118: x46+x55-y46_55 <=1 
C1119: x46+x56-y46_56 <=1 
C1120: x46+x57 <=1 
C1121: x46+x61-y46_61 <=1 
C1122: x46+x62 <=1 
C1123: x47+x49-y47_49 <=1 
C1124: x47+x50-y47_50 <=1 
C1125: x47+x51-y47_51 <=1 
C1126: x47+x53 <=1 
C1127: x47+x54 <=1 
C1128: x47+x56 <=1 
C1129: x47+x57 <=1 
C1130: x47+x58 <=1 
C1131: x47+x60-y47_60 <=1 
C1132: x47+x61-y47_61 <=1 
C1133: x47+x62-y47_62 <=1 
C1134: x48+x49-y48_49 <=1 
C1135: x48+x50 <=1 
C1136: x48+x53 <=1 
C1137: x48+x54-y48_54 <=1 
C1138: x48+x55-y48_55 <=1 
C1139: x48+x56 <=1 
C1140: x48+x61-y48_61 <=1 
C1141: x48+x63-y48_63 <=1 
C1142: x48+x64-y48_64 <=1 
C1143: x49+x51-y49_51 <=1 
C1144: x49+x52-y49_52 <=1 
C1145: x49+x55-y49_55 <=1 
C1146: x49+x56-y49_56 <=1 
C1147: x49+x58-y49_58 <=1 
C1148: x49+x59 <=1 
C1149: x49+x60 <=1 
C1150: x49+x61 <=1 
C1151: x50+x52 <=1 
C1152: x50+x53 <=1 
C1153: x50+x54 <=1 
C1154: x50+x55 <=1 
C1155: x50+x58-y50_58 <=1 
C1156: x50+x60 <=1 
C1157: x50+x61-y50_61 <=1 
C1158: x50+x62 <=1 
C1159: x50+x63 <=1 
C1160: x50+x64 <=1 
C1161: x51+x52 <=1 
C1162: x51+x55 <=1 
C1163: x51+x57 <=1 
C1164: x51+x58 <=1 
C1165: x51+x59-y51_59 <=1 
C1166: x52+x53-y52_53 <=1 
C1167: x52+x54-y52_54 <=1 
C1168: x52+x55 <=1 
C1169: x52+x57-y52_57 <=1 
C1170: x52+x60 <=1 
C1171: x52+x61-y52_61 <=1 
C1172: x52+x62-y52_62 <=1 
C1173: x52+x63-y52_63 <=1 
C1174: x53+x55-y53_55 <=1 
C1175: x53+x56 <=1 
C1176: x53+x57-y53_57 <=1 
C1177: x53+x58 <=1 
C1178: x53+x59 <=1 
C1179: x53+x60 <=1 
C1180: x53+x63 <=1 
C1181: x53+x64 <=1 
C1182: x54+x55 <=1 
C1183: x54+x56-y54_56 <=1 
C1184: x54+x57-y54_57 <=1 
C1185: x54+x58 <=1 
C1186: x54+x60 <=1 
C1187: x54+x61-y54_61 <=1 
C1188: x54+x63 <=1 
C1189: x55+x56-y55_56 <=1 
C1190: x55+x58 <=1 
C1191: x55+x59 <=1 
C1192: x55+x62-y55_62 <=1 
C1193: x55+x63 <=1 
C1194: x55+x64 <=1 
C1195: x56+x57-y56_57 <=1 
C1196: x56+x58-y56_58 <=1 
C1197: x56+x59 <=1 
C1198: x56+x60-y56_60 <=1 
C1199: x56+x61 <=1 
C1200: x56+x62 <=1 
C1201: x56+x64 <=1 
C1202: x57+x60 <=1 
C1203: x57+x61-y57_61 <=1 
C1204: x57+x62 <=1 
C1205: x57+x63-y57_63 <=1 
C1206: x58+x61 <=1 
C1207: x58+x62 <=1 
C1208: x58+x63-y58_63 <=1 
C1209: x58+x64-y58_64 <=1 
C1210: x59+x61 <=1 
C1211: x59+x62 <=1 
C1212: x59+x63-y59_63 <=1 
C1213: x60+x62 <=1 
C1214: x60+x63-y60_63 <=1 
C1215: x60+x64-y60_64 <=1 
C1216: x61+x62 <=1 
C1217: x61+x63 <=1 
C1218: x63+x64-y63_64 <=1 

binary
x0
x1
x2
x3
x4
x5
x6
x7
x8
x9
x10
x11
x12
x13
x14
x15
x16
x17
x18
x19
x20
x21
x22
x23
x24
x25
x26
x27
x28
x29
x30
x31
x32
x33
x34
x35
x36
x37
x38
x39
x40
x41
x42
x43
x44
x45
x46
x47
x48
x49
x50
x51
x52
x53
x54
x55
x56
x57
x58
x59
x60
x61
x62
x63
x64
