problem_generation/data/GISP/train/er_n=65_m=1218_p=0.60_SET2_setparam=100.00_alpha=0.50_949.sol
objective value:                                 1275
x4                                                  1 	(obj:100)
x5                                                  1 	(obj:100)
x7                                                  1 	(obj:100)
x10                                                 1 	(obj:100)
x21                                                 1 	(obj:100)
x26                                                 1 	(obj:100)
x29                                                 1 	(obj:100)
x30                                                 1 	(obj:100)
x38                                                 1 	(obj:100)
x45                                                 1 	(obj:100)
x46                                                 1 	(obj:100)
x50                                                 1 	(obj:100)
x56                                                 1 	(obj:100)
y26_30                                              1 	(obj:-1)
y7_26                                               1 	(obj:-1)
y21_46                                              1 	(obj:-1)
y10_45                                              1 	(obj:-1)
y7_30                                               1 	(obj:-1)
y21_50                                              1 	(obj:-1)
y5_50                                               1 	(obj:-1)
y21_30                                              1 	(obj:-1)
y5_26                                               1 	(obj:-1)
y4_30                                               1 	(obj:-1)
y38_46                                              1 	(obj:-1)
y5_21                                               1 	(obj:-1)
y5_7                                                1 	(obj:-1)
y26_38                                              1 	(obj:-1)
y4_10                                               1 	(obj:-1)
y7_56                                               1 	(obj:-1)
y10_29                                              1 	(obj:-1)
y10_56                                              1 	(obj:-1)
y29_56                                              1 	(obj:-1)
y4_45                                               1 	(obj:-1)
y45_46                                              1 	(obj:-1)
y46_56                                              1 	(obj:-1)
y7_46                                               1 	(obj:-1)
y26_45                                              1 	(obj:-1)
y10_50                                              1 	(obj:-1)
